security_analysis/Differential/Result/SWAN128-Diff-3.txt
in init()
---------------------------1-------------------------------
L_in
0000000000000010
0000000010000000
0000000000000010
0000000000000000
S1_in
0000000000000010
0000000001000000
0100000000000000
0000000000000000
S1_out		
0100000001000000
0000000000000010
0000000001000000
0100000001000010
After_Shift_row		 R_in
0100000001000000 	 0000001000001011
0000000000000001 	 0100001001011010
0000000000001000 	 0100001001000011
0000001000010010 	 0100000001001001
R_out
0000000000010000
0000000000000000
0000000000010000
0000000000000000
S2_in
0000000000010000
0000000000000000
0000000000000010
0000000000000000
S2_out		
0000000000010010
0000000000000000
0000000000010000
0000000000010010
After_Shift_row		 L_in
0000000000010010 		 0000000000000010
0000000000000000 		 0000000010000000
0000000000000010 		 0000000000000010
0000000010010000 		 0000000000000000
L_out
0000000010010000
0000000000000000
0000000010000000
0000000000010000
---------------------------2-------------------------------
L_in
0000000010010000
0000000000000000
0000000010000000
0000000000010000
S1_in
0000000010010000
0000000000000000
0000000000010000
0000000010000000
S1_out		
0000000000010000
0000000000000000
0000000010000000
0000000000000000
After_Shift_row		 R_in
0000000000010000 	 0000000000010000
0000000000000000 	 0000000000000000
0000000000010000 	 0000000000010000
0000000000000000 	 0000000000000000
R_out
0000000000000000
0000000000000000
0000000000000000
0000000000000000
S2_in
0000000000000000
0000000000000000
0000000000000000
0000000000000000
S2_out		
0000000000000000
0000000000000000
0000000000000000
0000000000000000
After_Shift_row		 L_in
0000000000000000 		 0000000010010000
0000000000000000 		 0000000000000000
0000000000000000 		 0000000010000000
0000000000000000 		 0000000000010000
L_out
0000000010010000
0000000000000000
0000000010000000
0000000000010000
---------------------------3-------------------------------
L_in
0000000010010000
0000000000000000
0000000010000000
0000000000010000
S1_in
0000000010010000
0000000000000000
0000000000010000
0000000010000000
S1_out		
0000000000010000
0000000000000000
0000000010000000
0000000000000000
After_Shift_row		 R_in
0000000000010000 	 0000000000000000
0000000000000000 	 0000000000000000
0000000000010000 	 0000000000000000
0000000000000000 	 0000000000000000
R_out
0000000000010000
0000000000000000
0000000000010000
0000000000000000
S2_in
0000000000010000
0000000000000000
0000000000000010
0000000000000000
S2_out		
0000000000010010
0000000000000000
0000000000010000
0000000000000010
After_Shift_row		 L_in
0000000000010010 		 0000000010010000
0000000000000000 		 0000000000000000
0000000000000010 		 0000000010000000
0000000000010000 		 0000000000010000
L_out
0000000010000010
0000000000000000
0000000010000010
0000000000000000
